NAME : XML100_3373_11
DIMENSION : 101
NB_CLUSTERS : 3
CLUSTERING_ALG : KMedoids
CLUSTERING_PARAMS : k(2)
CLUSTERS
1 0
2 1 2 3 4 5 7 9 11 12 15 18 19 22 25 26 32 34 37 39 40 46 48 52 53 54 56 58 59 62 63 64 65 68 69 71 73 74 75 76 77 78 80 82 83 84 85 87 88 90 91 92 93 94 95 97 99
3 6 8 10 13 14 16 17 20 21 23 24 27 28 29 30 31 33 35 36 38 41 42 43 44 45 47 49 50 51 55 57 60 61 66 67 70 72 79 81 86 89 96 98 100
EOF